STUDENTS = {Joan,Lester,Megan,Marion,Patsy,Joel,Justin,Erik,Nina,Jose,Derek,Eugene,Katherine,Claire,Anthony,Florence,Christine,Kimberly,Ian,Rodney,Dennis,Eva,Pauline,Edith,Sheila,Oscar,Frank,Stephanie,Bryan,Harold,Maria,Melissa,Wayne,Zachary,Gail,Tracy,Rita,Greg,Paula,Audrey,Karen,Gretchen,Cynthia,Craig,Arlene,Kristine,Kim,Joshua,Beth,Toni,Harriet,Emma,Timothy,Henry,Gwendolyn,Roberta,Maurice,Sarah,Dwight,Marilyn,Patrick,Janice,Jeremy,Holly,Catherine,Samuel,Floyd,Juan,Erin,Diana,Mildred,Gene,Gladys,Claude,Max,Warren,Jenny,Leslie,James,Ken,Andrea,Ernest,Veronica,Kurt,Glenda,Dianne,Hannah,Fred,Geoffrey,Darlene,Russell,Paul,Tamara,Joseph,Matthew,Patricia,Neil,Phyllis,Bruce,Walter,Norma,Nicholas,Harvey,Nathan,Jennifer,Joy,Joann,Vickie,Kerry,Natalie,Josephine,Laurie,Michelle,Annette,Marie,Billy,Luis,Carlos,Theodore,Tommy,Jack,Eleanor,Nicole,Gregory,Alvin,Alexander,Carolyn,Ben,William,Donald,Hugh,Alison,Kathy,Marcus,Jay,Suzanne,Rick,Glen,Daniel,Kate,Janet,Leo,Kathleen,Kristina,Jimmy,Jonathan,Jesse,Ellen,Jane,Brian};
T = 150;
LWB = 3;
UPB = 5;
apart = [|Joan,Joel|Joan,Ken|Lester,Karen|Megan,Kristine|Joel,Roberta|Joel,Floyd|Nina,Dwight|Nina,Catherine|Jose,Gail|Jose,Craig|Jose,Brian|Eugene,Paul|Eugene,Glen|Katherine,James|Katherine,Nicholas|Katherine,Jennifer|Katherine,William|Katherine,Hugh|Claire,Roberta|Claire,Kathy|Anthony,Paula|Anthony,Arlene|Anthony,Glen|Florence,Claude|Christine,Sarah|Kimberly,Kurt|Kimberly,Walter|Ian,Melissa|Ian,Henry|Ian,Samuel|Rodney,Oscar|Rodney,Harriet|Eva,Toni|Pauline,Laurie|Pauline,Marie|Pauline,Eleanor|Edith,Melissa|Edith,Cynthia|Edith,Joy|Sheila,Warren|Sheila,Darlene|Sheila,Jesse|Oscar,Suzanne|Frank,Jay|Stephanie,Cynthia|Bryan,Josephine|Bryan,William|Harold,Audrey|Melissa,Rita|Melissa,Max|Gail,Bruce|Gail,Eleanor|Gail,Jay|Rita,Kim|Rita,Nicole|Greg,Dianne|Greg,Kerry|Greg,Donald|Paula,Brian|Audrey,Vickie|Audrey,Nicole|Audrey,Kathleen|Karen,Neil|Karen,Theodore|Karen,Alison|Karen,Janet|Gretchen,Henry|Cynthia,Maurice|Craig,Joann|Craig,Vickie|Arlene,Hannah|Kristine,Andrea|Toni,Annette|Toni,Gregory|Harriet,Walter|Emma,Alvin|Roberta,Daniel|Sarah,Joseph|Sarah,Daniel|Patrick,Laurie|Patrick,Tommy|Janice,Alexander|Catherine,Josephine|Samuel,Joy|Diana,Gladys|Diana,Carlos|Diana,Kate|Mildred,Bruce|Gene,Patricia|Gene,Harvey|Claude,Warren|Claude,Patricia|Leslie,Suzanne|Andrea,Kurt|Andrea,Harvey|Ernest,Kurt|Ernest,Suzanne|Kurt,Neil|Kurt,Carlos|Kurt,Alexander|Fred,Suzanne|Geoffrey,Jane|Darlene,Jimmy|Joseph,Marie|Patricia,Jimmy|Phyllis,Joy|Norma,Carolyn|Nathan,Rick|Joy,Annette|Joann,Brian|Carlos,Janet|Theodore,Eleanor|Theodore,Kathy|Gregory,Kate|Ben,Suzanne|Alison,Rick|Kristina,Ellen|];
together = [|Erik,Kate|Katherine,Paula|Kimberly,Joshua|Eva,Geoffrey|Edith,Frank|Melissa,Paula|Gretchen,Floyd|Gretchen,Jay|Joshua,Harriet|Emma,Mildred|Timothy,Leslie|Gwendolyn,Hannah|Gladys,Kerry|Neil,Nicholas|William,Rick|];
